p tw 40 96
0 1
0 23
0 4
1 14
1 38
1 30
2 3
2 33
2 32
2 25
2 36
3 4
3 7
3 5
4 21
4 11
4 35
4 12
4 36
4 27
5 6
5 13
5 29
5 20
5 16
5 25
6 10
6 26
6 34
6 22
6 14
6 21
6 30
6 36
7 14
7 31
7 23
7 26
7 18
7 10
8 9
8 10
8 32
8 18
8 28
9 16
9 38
9 28
9 12
9 26
10 28
10 24
10 12
10 22
11 12
11 25
11 15
12 24
12 26
12 28
12 16
12 18
13 35
14 15
14 25
14 16
14 19
14 37
15 17
15 22
15 36
15 16
15 20
16 20
16 29
17 32
17 23
17 26
17 34
18 19
18 23
19 34
19 35
20 39
21 26
22 35
23 36
23 31
23 33
23 39
24 31
27 28
27 36
28 30
31 39
32 37
